(set-logic QF_S)
(declare-fun var0 () String)
(declare-fun var1 () String)
(declare-fun var2 () String)
(declare-fun var3 () Int)
(declare-fun var4 () Int)
(declare-fun var5 () Int)
(declare-fun var6 () Bool)
(declare-fun var7 () Bool)
(declare-fun var8 () Bool)
(assert (str.prefixof (str.substr var1 var5 var5) (str.at (str.at var1 var3) (str.len var1))))
(assert (str.suffixof (str.at (str.substr var0 (str.indexof (str.substr var2 var5 var5) (str.substr var0 var5 var5) (str.indexof var2 var2 var3)) (str.indexof var2 var0 var3)) (str.indexof var1 var1 var3)) (str.substr var1 var4 var4)))
(assert (>= (str.len (str.replace "nO=Z,>NJJK" var2 var1)) (str.indexof var2 var2 2)))
(assert (str.in.re var2 re.allchar))
(check-sat)